
  32    4
  10   10   10   10

   0   0   0   0   0   3 2 3 5 
   2   0   1   1   1   2 10 4 
   7   1   2   0   3   3 10 7 6 
  10   7   6   0   6   2 7 6 
   9   0   5   7   6   2 9 7 
   7   4   5   4   0   2 9 8 
   4   5   3   7   0   1 8 
   4   6   0   5   5   2 13 11 
   2   4   3   4   0   2 13 11 
   7   3   6   5   0   2 13 11 
   8   0   5   3   3   3 16 14 12 
  10   4   0   6   2   4 25 21 19 15 
   1   5   9   3   0   2 25 14 
   4   0   4   5   4   2 20 18 
   5   5   3   0   2   1 17 
   2   0   3   6   8   3 31 22 21 
   7   3   3   3   0   1 18 
   4   8   0   1   2   4 31 29 24 22 
  10   4   0   5   1   4 31 29 24 22 
   6   3   5   0   4   3 31 30 21 
   2   0   4   2   3   4 29 28 24 23 
   7   3   0   3   5   3 30 28 23 
   6   2   0   3   7   2 27 26 
   6   4   3   0   5   2 27 26 
   8   0   3   5   5   1 26 
  10   0   3   4   5   1 32
  10   2   5   3   0   1 32
   5   5   4   0   3   1 32
   7   0   3   3   2   1 32
   5   2   3   5   0   1 32
   2   0   5   3   6   1 32
   0   0   0   0   0   0 
